p cnf 489 2322
16 -12 -27 -47 45 0
-39 11 21 -9 47 0
23 -11 43 24 -33 0
3 -36 22 -41 46 0
-5 -8 14 28 19 0
-48 -35 26 49 -32 0
39 -7 29 47 15 0
-35 12 -18 -41 -29 0
-8 -7 -13 12 -50 0
25 42 -10 23 -8 0
-31 -7 -44 -30 22 0
-24 4 47 -11 -27 0
10 35 -42 45 -39 0
21 -22 25 -26 24 0
20 -18 -3 13 -12 0
32 46 -23 50 -33 0
-32 44 -14 29 -20 0
-13 -24 -6 40 21 0
34 36 -30 47 44 0
-17 -10 36 18 19 0
31 -1 -15 -5 4 0
-33 7 -24 44 35 0
-11 6 -29 1 -3 0
46 30 35 -45 -34 0
38 17 -18 -7 -25 0
12 40 -18 -30 -16 0
33 -48 10 -46 6 0
-39 50 -41 17 14 0
-43 -42 1 -8 32 0
48 -9 2 -3 44 0
27 -7 -1 16 49 0
11 -48 50 -33 -41 0
-18 -41 -21 -10 -13 0
26 -19 -35 43 -25 0
-43 28 37 -39 27 0
-21 -11 -27 41 16 0
47 -42 31 -1 -16 0
-5 2 -36 -12 -46 0
19 43 45 6 -5 0
-5 38 24 -35 42 0
-23 28 -26 24 -40 0
20 -33 -15 35 48 0
-22 39 -32 -33 -7 0
-48 -7 -34 29 25 0
-15 27 32 12 -38 0
25 -24 45 12 -16 0
30 -17 1 -11 20 0
-38 -22 -50 25 7 0
-29 27 -48 -11 44 0
-15 -17 12 -49 -8 0
-22 41 -16 2 -1 0
-41 44 -1 27 -3 0
-20 -38 47 -39 37 0
9 -48 -39 47 -36 0
19 3 -35 -21 -50 0
-44 -17 30 -5 35 0
39 36 -29 -44 -3 0
18 1 -3 -22 31 0
-2 3 -19 26 -18 0
22 40 8 39 -44 0
-47 -8 17 35 26 0
-35 12 20 7 37 0
47 -36 -18 -9 12 0
-12 43 -34 36 -13 0
44 -36 -41 2 23 0
-7 -1 47 26 39 0
19 4 -16 44 17 0
-1 -40 4 35 44 0
16 37 -34 -20 48 0
-6 -4 -42 -30 -32 0
-25 29 -16 26 -35 0
-7 -11 -37 -22 34 0
-34 -10 -48 -37 23 0
-39 25 -9 27 48 0
-21 6 -10 -47 32 0
-25 -38 49 -42 16 0
-30 -2 16 25 28 0
-46 18 21 31 -42 0
41 -21 39 31 26 0
-35 -42 4 30 -1 0
21 -12 -22 15 -27 0
38 45 20 29 10 0
-9 20 -28 -3 -27 0
46 -44 34 5 -36 0
-24 37 11 -16 3 0
9 -6 -50 34 40 0
7 -46 -32 5 19 0
19 39 -48 -32 42 0
9 -22 36 5 19 0
-11 -44 -21 49 -28 0
14 -24 20 -17 32 0
15 29 17 -4 3 0
45 36 46 25 -24 0
-11 25 45 23 6 0
-47 -20 -5 -14 18 0
3 34 50 23 -41 0
27 1 4 -16 -29 0
29 40 8 33 9 0
44 -8 -49 -6 -42 0
-40 -35 -41 -3 -24 0
-33 -14 -20 29 47 0
-28 -21 25 -8 -27 0
21 -3 32 -25 -23 0
-3 -8 45 27 -31 0
-8 -47 41 21 -33 0
42 50 48 10 6 0
-16 -22 12 -47 -32 0
15 -32 -6 -33 -37 0
27 -35 -17 -49 50 0
47 23 -8 21 -37 0
-45 31 -5 -26 -30 0
22 7 -17 9 18 0
-2 33 -32 -36 -48 0
29 -24 42 8 44 0
-17 -36 -33 -21 10 0
-3 4 18 -27 12 0
-26 47 -7 22 16 0
-27 -24 -13 -3 40 0
-25 27 42 -1 -2 0
-45 43 36 -34 22 0
28 42 25 -31 19 0
16 24 -10 46 47 0
24 34 29 2 14 0
-17 -19 22 -27 9 0
-42 33 -43 -40 -34 0
18 33 15 11 -49 0
39 -48 -23 -9 -5 0
-44 29 -20 50 24 0
-49 35 13 34 25 0
1 -7 23 12 -15 0
36 -33 -11 23 -34 0
33 2 29 -49 -39 0
-40 5 -9 15 32 0
22 25 -16 3 -17 0
-6 32 -44 30 9 0
-39 42 15 48 -3 0
37 48 -40 46 18 0
4 28 -36 13 50 0
18 -49 -46 -8 -28 0
-21 32 -45 -8 -38 0
6 12 8 1 -17 0
31 -1 -50 -7 -18 0
-31 -30 45 14 -26 0
-49 -5 14 50 -30 0
11 16 -7 35 28 0
-19 37 28 23 -20 0
15 -7 22 4 -39 0
-48 9 18 31 -44 0
-37 19 -49 -28 -26 0
-7 40 -19 49 -8 0
-49 7 37 -29 10 0
-35 -33 -29 28 -27 0
40 -43 -13 20 -42 0
23 -38 9 -50 -10 0
-26 -42 46 16 1 0
12 -31 -19 -44 -49 0
28 36 -2 -37 -13 0
32 -40 17 19 -26 0
-12 -2 35 17 -27 0
24 -5 21 -29 40 0
-18 38 -50 -46 11 0
15 -24 36 -8 38 0
25 46 -2 -1 33 0
-35 -24 -50 32 -14 0
-17 -11 9 -19 15 0
4 -22 -20 -15 44 0
50 -45 21 8 26 0
7 -37 -38 11 -23 0
47 44 9 43 50 0
-44 -48 -9 -39 -45 0
22 4 -30 35 -36 0
-27 47 -39 36 -48 0
-10 -7 -39 -31 -27 0
-20 49 -2 41 37 0
-27 -25 -22 39 -26 0
-48 -24 -27 21 4 0
32 -40 -39 -46 -14 0
44 -13 -25 33 10 0
-2 19 10 44 -4 0
5 33 -29 -10 21 0
19 -34 4 35 -8 0
29 -50 -22 -21 10 0
36 27 9 -21 -18 0
4 28 50 43 45 0
-18 50 -32 -43 20 0
45 -26 7 10 25 0
-24 17 14 47 30 0
7 -27 4 -24 29 0
-13 34 -26 -20 -37 0
-48 37 -35 36 -5 0
10 -16 42 -28 34 0
7 39 3 -49 -42 0
-39 -24 20 5 -10 0
19 43 -4 11 20 0
31 23 7 34 -22 0
34 -3 -13 28 -47 0
-2 -44 27 -17 24 0
-1 -35 -24 36 28 0
-32 -44 35 -5 48 0
-20 11 32 -10 24 0
36 44 12 -27 25 0
34 -12 -1 26 27 0
-35 48 37 -23 8 0
-28 39 -7 11 -35 0
9 -20 16 -13 8 0
30 29 -12 -32 -10 0
-50 15 -7 36 -31 0
24 47 -34 20 2 0
27 32 -20 3 13 0
47 8 -50 -43 -46 0
31 20 2 -14 -4 0
-32 19 -38 15 17 0
14 37 -49 -25 -33 0
1 -10 -24 8 38 0
29 49 -3 35 23 0
-29 -21 -26 -30 -43 0
14 -25 45 -50 -16 0
17 2 -27 -22 1 0
26 31 -11 -27 -49 0
8 -17 -41 34 38 0
9 25 37 4 -13 0
37 14 34 20 42 0
46 -30 -18 8 5 0
45 -26 27 -32 19 0
-36 8 -4 -18 23 0
32 -43 -8 -19 31 0
-43 -35 -31 6 30 0
37 -11 -3 -21 42 0
-18 -33 24 40 13 0
-24 32 -50 -14 -40 0
17 12 30 45 -7 0
21 17 5 46 -20 0
-35 1 29 -11 19 0
39 -25 42 -24 -30 0
8 -21 27 17 -23 0
15 16 -24 -5 10 0
14 37 -30 19 -7 0
26 21 37 46 -39 0
-23 26 28 44 3 0
-3 36 -10 1 31 0
-48 -20 37 45 -12 0
41 12 -38 25 -39 0
-29 8 13 -31 49 0
10 -35 3 -27 31 0
-1 -20 32 -38 -19 0
42 -20 45 -23 -37 0
-19 -40 45 -38 -42 0
-21 -9 28 14 19 0
24 20 12 13 28 0
-36 -37 49 48 39 0
49 45 16 -26 -11 0
28 4 -10 -41 -47 0
-19 -27 -28 46 -43 0
50 17 24 -18 -10 0
-13 11 -9 -31 -5 0
20 15 33 10 28 0
6 -8 25 -7 26 0
-19 36 -8 -45 -35 0
-46 12 49 33 30 0
-31 -2 -3 22 11 0
-1 22 -48 18 -17 0
9 21 28 5 31 0
14 -20 -24 -37 4 0
2 -40 -18 28 -13 0
49 43 -35 -41 -45 0
5 -12 -14 13 26 0
11 14 19 -24 28 0
-39 -17 -8 19 -37 0
22 27 -29 19 41 0
48 3 9 28 36 0
-18 3 21 15 26 0
10 -43 -32 41 -49 0
-15 12 -9 -48 22 0
5 8 21 -1 20 0
44 -38 -41 2 -4 0
-18 26 43 3 39 0
-26 29 45 -14 10 0
-37 -20 -15 23 -38 0
23 -27 30 -1 29 0
46 3 -20 10 5 0
-23 -34 -21 -17 -35 0
-23 8 -44 -21 20 0
49 -5 -7 -8 19 0
23 29 43 38 26 0
2 41 4 18 -49 0
17 -29 -7 -3 -48 0
-14 9 41 10 -42 0
24 23 13 3 41 0
31 29 -33 45 23 0
-22 45 -50 -34 49 0
-2 -15 26 -18 -39 0
27 -23 31 -45 9 0
-46 -32 47 -20 -19 0
-36 -34 9 31 16 0
-32 16 30 -34 -31 0
19 -6 -38 -28 -29 0
-32 -43 -50 -9 -21 0
36 26 -35 31 -45 0
-19 10 -1 -31 -50 0
-16 -13 -33 -39 35 0
39 -26 49 -16 2 0
27 12 -23 -25 33 0
-36 18 -27 23 -47 0
41 13 32 38 -23 0
-15 18 -48 29 2 0
-32 27 15 -33 45 0
44 -12 -13 10 -18 0
28 -26 9 10 -16 0
49 48 -35 20 -22 0
7 8 17 27 -30 0
-13 8 -36 -42 37 0
20 25 8 34 -6 0
-32 -27 41 -15 42 0
50 4 -19 -21 42 0
-9 -50 45 41 5 0
25 -13 47 29 -18 0
-19 37 -48 50 -2 0
10 -41 -12 26 44 0
22 -17 -4 29 9 0
25 -2 -21 46 -33 0
7 11 -36 43 -35 0
45 -32 -31 25 -41 0
35 -24 38 -21 -32 0
1 48 46 28 41 0
38 47 42 3 -7 0
9 -21 -35 -7 -40 0
-8 -27 -25 49 -26 0
48 -14 5 43 -28 0
8 34 12 33 36 0
-39 32 27 10 -47 0
11 -9 12 28 -35 0
14 -3 -6 -47 44 0
29 -13 46 2 -50 0
-27 -12 28 -26 34 0
46 -25 -27 16 37 0
-25 -27 -42 -36 -31 0
-5 -24 -45 -44 43 0
49 -17 -30 -16 -18 0
15 -45 -32 -47 -36 0
10 -4 -50 -35 -26 0
11 38 2 -47 34 0
-16 49 8 6 21 0
-28 13 26 -8 39 0
7 -44 -50 49 -31 0
-37 12 1 40 -9 0
-28 -17 -25 -46 -10 0
29 31 2 39 9 0
20 -29 34 -17 11 0
35 -17 -42 3 -36 0
17 24 12 36 14 0
-31 32 17 -16 27 0
-48 32 43 -42 -8 0
-14 -49 37 -9 -50 0
-15 41 18 -44 48 0
-8 -6 11 -25 48 0
-17 21 -10 -14 -31 0
-11 -1 14 39 47 0
-1 -50 6 16 46 0
32 23 40 4 31 0
-10 41 -14 32 21 0
-5 11 24 30 -39 0
-7 -13 31 6 39 0
38 -22 -19 48 -43 0
24 44 -49 1 45 0
-4 -29 8 28 -45 0
-10 -46 -17 -4 15 0
-8 -5 -19 -39 -4 0
15 -12 -28 46 -17 0
-11 -44 -32 36 -20 0
35 43 4 -23 -36 0
13 -40 -49 -5 15 0
-44 -25 -14 -40 -43 0
13 -37 -41 -4 5 0
1 50 -28 24 -38 0
26 47 -1 24 30 0
-18 12 19 15 -41 0
-32 -9 13 -45 25 0
14 -50 25 4 -36 0
1 -36 -44 -40 21 0
-32 -46 -20 -39 -49 0
8 35 -29 31 3 0
-32 -23 17 40 24 0
-49 -50 28 15 38 0
21 -29 14 -34 32 0
-25 -6 46 4 2 0
41 36 -33 42 -44 0
14 -17 -29 42 -18 0
17 -26 37 10 -49 0
-34 -22 -40 31 -2 0
3 41 5 -48 34 0
-20 38 -33 -41 -6 0
-32 -41 46 -9 43 0
41 -47 38 25 -39 0
-31 22 -38 37 21 0
15 -16 -39 40 -35 0
27 5 32 9 23 0
46 14 11 49 32 0
11 29 48 27 -35 0
-30 -12 4 48 41 0
-46 -30 -4 -48 3 0
43 -27 18 48 45 0
-48 21 34 -11 36 0
-6 2 48 42 35 0
39 -15 28 -30 33 0
-41 -30 3 32 28 0
7 38 4 50 -11 0
42 -2 -36 1 -46 0
39 -15 -22 -37 27 0
46 35 10 -9 -7 0
3 16 34 28 41 0
-2 3 -27 -18 20 0
-7 -11 30 -46 -20 0
-44 9 -42 -35 19 0
-23 -22 43 46 -10 0
31 33 -49 -6 5 0
-47 -21 -44 -40 -39 0
10 -39 -25 21 50 0
-42 -9 36 40 20 0
-45 -38 9 27 -25 0
-46 26 49 43 2 0
27 -24 45 -50 49 0
-24 5 -40 43 26 0
-6 23 24 -19 -38 0
-12 10 -20 -9 15 0
43 -24 47 -37 -6 0
49 16 46 -6 -15 0
-33 -16 50 30 -48 0
17 2 -28 24 34 0
-36 10 26 -11 -15 0
16 38 11 7 -48 0
-48 42 -34 -23 3 0
-16 -38 -34 36 26 0
36 -27 -14 37 28 0
-40 -30 -45 -11 -36 0
-16 -22 17 19 41 0
-19 -24 42 41 13 0
14 37 5 -8 -49 0
-44 36 21 15 -38 0
-29 2 28 -4 9 0
-41 48 39 -26 -33 0
-33 30 34 39 9 0
-34 -43 -23 42 30 0
8 43 -15 1 23 0
-20 -25 49 -1 7 0
-29 -12 -25 22 28 0
-33 -44 48 20 -26 0
42 50 -43 -2 31 0
20 -39 -50 -11 -42 0
39 43 -3 -7 -40 0
-19 -12 -11 -17 -26 0
-49 -37 4 -38 -5 0
8 39 28 -33 -49 0
4 11 16 -29 -8 0
-2 5 -26 -25 -28 0
30 -28 47 14 -35 0
44 -16 47 6 39 0
-40 26 -14 -49 34 0
17 13 -43 -31 -3 0
49 -29 -22 -13 -9 0
42 -34 -47 -35 37 0
-11 24 48 22 30 0
24 -25 -26 -32 5 0
7 -29 8 40 -47 0
39 40 1 34 -27 0
-26 38 -14 -19 45 0
-20 28 12 2 -13 0
-19 -48 -26 44 10 0
-44 -41 6 13 30 0
-18 37 1 50 30 0
-26 31 14 37 50 0
3 12 33 -26 31 0
24 15 -50 10 34 0
12 -38 -6 -39 42 0
-30 -50 1 -8 43 0
-23 3 -24 20 9 0
-37 40 -26 13 -8 0
17 50 34 -30 -48 0
25 -3 8 36 -5 0
-9 28 44 -5 7 0
-7 -24 27 2 -25 0
20 47 4 2 -5 0
37 18 16 11 6 0
1 -7 -36 49 -18 0
-31 -21 -18 -33 -14 0
-45 -3 -27 -7 -44 0
33 -1 -27 38 -35 0
-18 10 -4 -50 40 0
50 4 -33 11 -19 0
40 36 25 10 -30 0
43 -8 -25 3 -41 0
-48 22 -9 16 18 0
45 -44 -26 30 -22 0
48 44 32 -26 -3 0
-13 49 37 8 32 0
5 -11 39 21 16 0
46 -21 -16 7 -30 0
-36 -27 39 22 1 0
-42 5 -37 48 -27 0
-36 -23 -25 -33 -10 0
-34 -30 5 -13 -10 0
-1 -2 51 0
1 -2 -51 0
-1 2 -51 0
1 2 51 0
3 4 52 0
-3 4 -52 0
3 -4 -52 0
-3 -4 52 0
8 -9 53 0
-8 -9 -53 0
8 9 -53 0
-8 9 53 0
-10 11 54 0
10 11 -54 0
-10 -11 -54 0
10 -11 54 0
13 -14 55 0
-13 -14 -55 0
13 14 -55 0
-13 14 55 0
15 16 56 0
-15 16 -56 0
15 -16 -56 0
-15 -16 56 0
18 -19 57 0
-18 -19 -57 0
18 19 -57 0
-18 19 57 0
20 -21 58 0
-20 -21 -58 0
20 21 -58 0
-20 21 58 0
-22 -23 59 0
22 -23 -59 0
-22 23 -59 0
22 23 59 0
24 -26 60 0
-24 -26 -60 0
24 26 -60 0
-24 26 60 0
-27 -28 61 0
27 -28 -61 0
-27 28 -61 0
27 28 61 0
-30 -32 62 0
30 -32 -62 0
-30 32 -62 0
30 32 62 0
-34 36 63 0
34 36 -63 0
-34 -36 -63 0
34 -36 63 0
37 38 64 0
-37 38 -64 0
37 -38 -64 0
-37 -38 64 0
39 45 65 0
-39 45 -65 0
39 -45 -65 0
-39 -45 65 0
46 47 66 0
-46 47 -66 0
46 -47 -66 0
-46 -47 66 0
-48 49 67 0
48 49 -67 0
-48 -49 -67 0
48 -49 67 0
51 -52 68 0
-51 -52 -68 0
51 52 -68 0
-51 52 68 0
53 -54 69 0
-53 -54 -69 0
53 54 -69 0
-53 54 69 0
55 -56 70 0
-55 -56 -70 0
55 56 -70 0
-55 56 70 0
57 -58 71 0
-57 -58 -71 0
57 58 -71 0
-57 58 71 0
59 -60 72 0
-59 -60 -72 0
59 60 -72 0
-59 60 72 0
61 -62 73 0
-61 -62 -73 0
61 62 -73 0
-61 62 73 0
63 -64 74 0
-63 -64 -74 0
63 64 -74 0
-63 64 74 0
65 -66 75 0
-65 -66 -75 0
65 66 -75 0
-65 66 75 0
67 -68 76 0
-67 -68 -76 0
67 68 -76 0
-67 68 76 0
69 -70 77 0
-69 -70 -77 0
69 70 -77 0
-69 70 77 0
71 -72 78 0
-71 -72 -78 0
71 72 -78 0
-71 72 78 0
73 -74 79 0
-73 -74 -79 0
73 74 -79 0
-73 74 79 0
75 -76 80 0
-75 -76 -80 0
75 76 -80 0
-75 76 80 0
77 -78 81 0
-77 -78 -81 0
77 78 -81 0
-77 78 81 0
-79 -80 81 0
79 -80 -81 0
-79 80 -81 0
79 80 81 0
-2 3 82 0
2 3 -82 0
-2 -3 -82 0
2 -3 82 0
-4 -5 83 0
4 -5 -83 0
-4 5 -83 0
4 5 83 0
6 -8 84 0
-6 -8 -84 0
6 8 -84 0
-6 8 84 0
10 -13 85 0
-10 -13 -85 0
10 13 -85 0
-10 13 85 0
-15 -17 86 0
15 -17 -86 0
-15 17 -86 0
15 17 86 0
-18 -19 87 0
18 -19 -87 0
-18 19 -87 0
18 19 87 0
20 -23 88 0
-20 -23 -88 0
20 23 -88 0
-20 23 88 0
-25 -29 89 0
25 -29 -89 0
-25 29 -89 0
25 29 89 0
-30 31 90 0
30 31 -90 0
-30 -31 -90 0
30 -31 90 0
-33 34 91 0
33 34 -91 0
-33 -34 -91 0
33 -34 91 0
-35 37 92 0
35 37 -92 0
-35 -37 -92 0
35 -37 92 0
-39 40 93 0
39 40 -93 0
-39 -40 -93 0
39 -40 93 0
-41 -42 94 0
41 -42 -94 0
-41 42 -94 0
41 42 94 0
43 -44 95 0
-43 -44 -95 0
43 44 -95 0
-43 44 95 0
45 -47 96 0
-45 -47 -96 0
45 47 -96 0
-45 47 96 0
81 -82 97 0
-81 -82 -97 0
81 82 -97 0
-81 82 97 0
83 -84 98 0
-83 -84 -98 0
83 84 -98 0
-83 84 98 0
85 -86 99 0
-85 -86 -99 0
85 86 -99 0
-85 86 99 0
87 -88 100 0
-87 -88 -100 0
87 88 -100 0
-87 88 100 0
89 -90 101 0
-89 -90 -101 0
89 90 -101 0
-89 90 101 0
91 -92 102 0
-91 -92 -102 0
91 92 -102 0
-91 92 102 0
93 -94 103 0
-93 -94 -103 0
93 94 -103 0
-93 94 103 0
95 -96 104 0
-95 -96 -104 0
95 96 -104 0
-95 96 104 0
97 -98 105 0
-97 -98 -105 0
97 98 -105 0
-97 98 105 0
99 -100 106 0
-99 -100 -106 0
99 100 -106 0
-99 100 106 0
101 -102 107 0
-101 -102 -107 0
101 102 -107 0
-101 102 107 0
103 -104 108 0
-103 -104 -108 0
103 104 -108 0
-103 104 108 0
105 -106 109 0
-105 -106 -109 0
105 106 -109 0
-105 106 109 0
107 -108 110 0
-107 -108 -110 0
107 108 -110 0
-107 108 110 0
109 110 0
-109 -110 0
-3 -8 111 0
3 -8 -111 0
-3 8 -111 0
3 8 111 0
-9 11 112 0
9 11 -112 0
-9 -11 -112 0
9 -11 112 0
13 14 113 0
-13 14 -113 0
13 -14 -113 0
-13 -14 113 0
15 -17 114 0
-15 -17 -114 0
15 17 -114 0
-15 17 114 0
-20 -21 115 0
20 -21 -115 0
-20 21 -115 0
20 21 115 0
23 25 116 0
-23 25 -116 0
23 -25 -116 0
-23 -25 116 0
-26 27 117 0
26 27 -117 0
-26 -27 -117 0
26 -27 117 0
29 -31 118 0
-29 -31 -118 0
29 31 -118 0
-29 31 118 0
32 -35 119 0
-32 -35 -119 0
32 35 -119 0
-32 35 119 0
36 -41 120 0
-36 -41 -120 0
36 41 -120 0
-36 41 120 0
110 -111 121 0
-110 -111 -121 0
110 111 -121 0
-110 111 121 0
112 -113 122 0
-112 -113 -122 0
112 113 -122 0
-112 113 122 0
114 -115 123 0
-114 -115 -123 0
114 115 -123 0
-114 115 123 0
116 -117 124 0
-116 -117 -124 0
116 117 -124 0
-116 117 124 0
118 -119 125 0
-118 -119 -125 0
118 119 -125 0
-118 119 125 0
120 -121 126 0
-120 -121 -126 0
120 121 -126 0
-120 121 126 0
122 -123 127 0
-122 -123 -127 0
122 123 -127 0
-122 123 127 0
124 -125 128 0
-124 -125 -128 0
124 125 -128 0
-124 125 128 0
-126 -127 128 0
126 -127 -128 0
-126 127 -128 0
126 127 128 0
2 4 129 0
-2 4 -129 0
2 -4 -129 0
-2 -4 129 0
-5 9 130 0
5 9 -130 0
-5 -9 -130 0
5 -9 130 0
-13 -16 131 0
13 -16 -131 0
-13 16 -131 0
13 16 131 0
17 19 132 0
-17 19 -132 0
17 -19 -132 0
-17 -19 132 0
-20 -21 133 0
20 -21 -133 0
-20 21 -133 0
20 21 133 0
-25 27 134 0
25 27 -134 0
-25 -27 -134 0
25 -27 134 0
29 -30 135 0
-29 -30 -135 0
29 30 -135 0
-29 30 135 0
-35 -36 136 0
35 -36 -136 0
-35 36 -136 0
35 36 136 0
-39 41 137 0
39 41 -137 0
-39 -41 -137 0
39 -41 137 0
43 -44 138 0
-43 -44 -138 0
43 44 -138 0
-43 44 138 0
45 46 139 0
-45 46 -139 0
45 -46 -139 0
-45 -46 139 0
128 -129 140 0
-128 -129 -140 0
128 129 -140 0
-128 129 140 0
130 -131 141 0
-130 -131 -141 0
130 131 -141 0
-130 131 141 0
132 -133 142 0
-132 -133 -142 0
132 133 -142 0
-132 133 142 0
134 -135 143 0
-134 -135 -143 0
134 135 -143 0
-134 135 143 0
136 -137 144 0
-136 -137 -144 0
136 137 -144 0
-136 137 144 0
138 -139 145 0
-138 -139 -145 0
138 139 -145 0
-138 139 145 0
140 -141 146 0
-140 -141 -146 0
140 141 -146 0
-140 141 146 0
142 -143 147 0
-142 -143 -147 0
142 143 -147 0
-142 143 147 0
144 -145 148 0
-144 -145 -148 0
144 145 -148 0
-144 145 148 0
-146 -147 148 0
146 -147 -148 0
-146 147 -148 0
146 147 148 0
1 -2 149 0
-1 -2 -149 0
1 2 -149 0
-1 2 149 0
-4 8 150 0
4 8 -150 0
-4 -8 -150 0
4 -8 150 0
11 -12 151 0
-11 -12 -151 0
11 12 -151 0
-11 12 151 0
13 14 152 0
-13 14 -152 0
13 -14 -152 0
-13 -14 152 0
16 18 153 0
-16 18 -153 0
16 -18 -153 0
-16 -18 153 0
19 -20 154 0
-19 -20 -154 0
19 20 -154 0
-19 20 154 0
-24 -25 155 0
24 -25 -155 0
-24 25 -155 0
24 25 155 0
-30 -33 156 0
30 -33 -156 0
-30 33 -156 0
30 33 156 0
-34 -38 157 0
34 -38 -157 0
-34 38 -157 0
34 38 157 0
40 -41 158 0
-40 -41 -158 0
40 41 -158 0
-40 41 158 0
-44 -48 159 0
44 -48 -159 0
-44 48 -159 0
44 48 159 0
148 -149 160 0
-148 -149 -160 0
148 149 -160 0
-148 149 160 0
150 -151 161 0
-150 -151 -161 0
150 151 -161 0
-150 151 161 0
152 -153 162 0
-152 -153 -162 0
152 153 -162 0
-152 153 162 0
154 -155 163 0
-154 -155 -163 0
154 155 -163 0
-154 155 163 0
156 -157 164 0
-156 -157 -164 0
156 157 -164 0
-156 157 164 0
158 -159 165 0
-158 -159 -165 0
158 159 -165 0
-158 159 165 0
160 -161 166 0
-160 -161 -166 0
160 161 -166 0
-160 161 166 0
162 -163 167 0
-162 -163 -167 0
162 163 -167 0
-162 163 167 0
164 -165 168 0
-164 -165 -168 0
164 165 -168 0
-164 165 168 0
-166 -167 168 0
166 -167 -168 0
-166 167 -168 0
166 167 168 0
-2 3 169 0
2 3 -169 0
-2 -3 -169 0
2 -3 169 0
4 -7 170 0
-4 -7 -170 0
4 7 -170 0
-4 7 170 0
9 12 171 0
-9 12 -171 0
9 -12 -171 0
-9 -12 171 0
-14 19 172 0
14 19 -172 0
-14 -19 -172 0
14 -19 172 0
23 -25 173 0
-23 -25 -173 0
23 25 -173 0
-23 25 173 0
27 -31 174 0
-27 -31 -174 0
27 31 -174 0
-27 31 174 0
-32 34 175 0
32 34 -175 0
-32 -34 -175 0
32 -34 175 0
-35 39 176 0
35 39 -176 0
-35 -39 -176 0
35 -39 176 0
-41 -42 177 0
41 -42 -177 0
-41 42 -177 0
41 42 177 0
46 47 178 0
-46 47 -178 0
46 -47 -178 0
-46 -47 178 0
-48 49 179 0
48 49 -179 0
-48 -49 -179 0
48 -49 179 0
169 -170 180 0
-169 -170 -180 0
169 170 -180 0
-169 170 180 0
171 -172 181 0
-171 -172 -181 0
171 172 -181 0
-171 172 181 0
173 -174 182 0
-173 -174 -182 0
173 174 -182 0
-173 174 182 0
175 -176 183 0
-175 -176 -183 0
175 176 -183 0
-175 176 183 0
177 -178 184 0
-177 -178 -184 0
177 178 -184 0
-177 178 184 0
179 -180 185 0
-179 -180 -185 0
179 180 -185 0
-179 180 185 0
181 -182 186 0
-181 -182 -186 0
181 182 -186 0
-181 182 186 0
183 -184 187 0
-183 -184 -187 0
183 184 -187 0
-183 184 187 0
-185 -186 187 0
185 -186 -187 0
-185 186 -187 0
185 186 187 0
-2 8 188 0
2 8 -188 0
-2 -8 -188 0
2 -8 188 0
10 -14 189 0
-10 -14 -189 0
10 14 -189 0
-10 14 189 0
17 19 190 0
-17 19 -190 0
17 -19 -190 0
-17 -19 190 0
-24 25 191 0
24 25 -191 0
-24 -25 -191 0
24 -25 191 0
-26 27 192 0
26 27 -192 0
-26 -27 -192 0
26 -27 192 0
28 32 193 0
-28 32 -193 0
28 -32 -193 0
-28 -32 193 0
-34 36 194 0
34 36 -194 0
-34 -36 -194 0
34 -36 194 0
-37 38 195 0
37 38 -195 0
-37 -38 -195 0
37 -38 195 0
43 -44 196 0
-43 -44 -196 0
43 44 -196 0
-43 44 196 0
-47 49 197 0
47 49 -197 0
-47 -49 -197 0
47 -49 197 0
188 -189 198 0
-188 -189 -198 0
188 189 -198 0
-188 189 198 0
190 -191 199 0
-190 -191 -199 0
190 191 -199 0
-190 191 199 0
192 -193 200 0
-192 -193 -200 0
192 193 -200 0
-192 193 200 0
194 -195 201 0
-194 -195 -201 0
194 195 -201 0
-194 195 201 0
196 -197 202 0
-196 -197 -202 0
196 197 -202 0
-196 197 202 0
198 -199 203 0
-198 -199 -203 0
198 199 -203 0
-198 199 203 0
200 -201 204 0
-200 -201 -204 0
200 201 -204 0
-200 201 204 0
-202 -203 204 0
202 -203 -204 0
-202 203 -204 0
202 203 204 0
2 9 205 0
-2 9 -205 0
2 -9 -205 0
-2 -9 205 0
-11 -19 206 0
11 -19 -206 0
-11 19 -206 0
11 19 206 0
-20 -21 207 0
20 -21 -207 0
-20 21 -207 0
20 21 207 0
22 -23 208 0
-22 -23 -208 0
22 23 -208 0
-22 23 208 0
24 -25 209 0
-24 -25 -209 0
24 25 -209 0
-24 25 209 0
-30 31 210 0
30 31 -210 0
-30 -31 -210 0
30 -31 210 0
-33 -36 211 0
33 -36 -211 0
-33 36 -211 0
33 36 211 0
-37 -38 212 0
37 -38 -212 0
-37 38 -212 0
37 38 212 0
39 41 213 0
-39 41 -213 0
39 -41 -213 0
-39 -41 213 0
-44 -45 214 0
44 -45 -214 0
-44 45 -214 0
44 45 214 0
-46 47 215 0
46 47 -215 0
-46 -47 -215 0
46 -47 215 0
204 -205 216 0
-204 -205 -216 0
204 205 -216 0
-204 205 216 0
206 -207 217 0
-206 -207 -217 0
206 207 -217 0
-206 207 217 0
208 -209 218 0
-208 -209 -218 0
208 209 -218 0
-208 209 218 0
210 -211 219 0
-210 -211 -219 0
210 211 -219 0
-210 211 219 0
212 -213 220 0
-212 -213 -220 0
212 213 -220 0
-212 213 220 0
214 -215 221 0
-214 -215 -221 0
214 215 -221 0
-214 215 221 0
216 -217 222 0
-216 -217 -222 0
216 217 -222 0
-216 217 222 0
218 -219 223 0
-218 -219 -223 0
218 219 -223 0
-218 219 223 0
220 -221 224 0
-220 -221 -224 0
220 221 -224 0
-220 221 224 0
-222 -223 224 0
222 -223 -224 0
-222 223 -224 0
222 223 224 0
-1 2 225 0
1 2 -225 0
-1 -2 -225 0
1 -2 225 0
-4 -7 226 0
4 -7 -226 0
-4 7 -226 0
4 7 226 0
-8 -10 227 0
8 -10 -227 0
-8 10 -227 0
8 10 227 0
14 -15 228 0
-14 -15 -228 0
14 15 -228 0
-14 15 228 0
-17 18 229 0
17 18 -229 0
-17 -18 -229 0
17 -18 229 0
-19 -23 230 0
19 -23 -230 0
-19 23 -230 0
19 23 230 0
-26 28 231 0
26 28 -231 0
-26 -28 -231 0
26 -28 231 0
31 36 232 0
-31 36 -232 0
31 -36 -232 0
-31 -36 232 0
39 -40 233 0
-39 -40 -233 0
39 40 -233 0
-39 40 233 0
-41 -42 234 0
41 -42 -234 0
-41 42 -234 0
41 42 234 0
43 -44 235 0
-43 -44 -235 0
43 44 -235 0
-43 44 235 0
-46 -49 236 0
46 -49 -236 0
-46 49 -236 0
46 49 236 0
224 -225 237 0
-224 -225 -237 0
224 225 -237 0
-224 225 237 0
226 -227 238 0
-226 -227 -238 0
226 227 -238 0
-226 227 238 0
228 -229 239 0
-228 -229 -239 0
228 229 -239 0
-228 229 239 0
230 -231 240 0
-230 -231 -240 0
230 231 -240 0
-230 231 240 0
232 -233 241 0
-232 -233 -241 0
232 233 -241 0
-232 233 241 0
234 -235 242 0
-234 -235 -242 0
234 235 -242 0
-234 235 242 0
236 -237 243 0
-236 -237 -243 0
236 237 -243 0
-236 237 243 0
238 -239 244 0
-238 -239 -244 0
238 239 -244 0
-238 239 244 0
240 -241 245 0
-240 -241 -245 0
240 241 -245 0
-240 241 245 0
242 -243 246 0
-242 -243 -246 0
242 243 -246 0
-242 243 246 0
244 -245 247 0
-244 -245 -247 0
244 245 -247 0
-244 245 247 0
246 247 0
-246 -247 0
-2 4 248 0
2 4 -248 0
-2 -4 -248 0
2 -4 248 0
-9 -11 249 0
9 -11 -249 0
-9 11 -249 0
9 11 249 0
15 16 250 0
-15 16 -250 0
15 -16 -250 0
-15 -16 250 0
-17 18 251 0
17 18 -251 0
-17 -18 -251 0
17 -18 251 0
19 -20 252 0
-19 -20 -252 0
19 20 -252 0
-19 20 252 0
-24 30 253 0
24 30 -253 0
-24 -30 -253 0
24 -30 253 0
-32 -34 254 0
32 -34 -254 0
-32 34 -254 0
32 34 254 0
35 -36 255 0
-35 -36 -255 0
35 36 -255 0
-35 36 255 0
-39 40 256 0
39 40 -256 0
-39 -40 -256 0
39 -40 256 0
41 -45 257 0
-41 -45 -257 0
41 45 -257 0
-41 45 257 0
247 -248 258 0
-247 -248 -258 0
247 248 -258 0
-247 248 258 0
249 -250 259 0
-249 -250 -259 0
249 250 -259 0
-249 250 259 0
251 -252 260 0
-251 -252 -260 0
251 252 -260 0
-251 252 260 0
253 -254 261 0
-253 -254 -261 0
253 254 -261 0
-253 254 261 0
255 -256 262 0
-255 -256 -262 0
255 256 -262 0
-255 256 262 0
257 -258 263 0
-257 -258 -263 0
257 258 -263 0
-257 258 263 0
259 -260 264 0
-259 -260 -264 0
259 260 -264 0
-259 260 264 0
261 -262 265 0
-261 -262 -265 0
261 262 -265 0
-261 262 265 0
-263 -264 265 0
263 -264 -265 0
-263 264 -265 0
263 264 265 0
1 -5 266 0
-1 -5 -266 0
1 5 -266 0
-1 5 266 0
6 -7 267 0
-6 -7 -267 0
6 7 -267 0
-6 7 267 0
-8 -9 268 0
8 -9 -268 0
-8 9 -268 0
8 9 268 0
-11 -13 269 0
11 -13 -269 0
-11 13 -269 0
11 13 269 0
-14 16 270 0
14 16 -270 0
-14 -16 -270 0
14 -16 270 0
-17 -19 271 0
17 -19 -271 0
-17 19 -271 0
17 19 271 0
20 22 272 0
-20 22 -272 0
20 -22 -272 0
-20 -22 272 0
-23 24 273 0
23 24 -273 0
-23 -24 -273 0
23 -24 273 0
-26 -27 274 0
26 -27 -274 0
-26 27 -274 0
26 27 274 0
28 30 275 0
-28 30 -275 0
28 -30 -275 0
-28 -30 275 0
-31 33 276 0
31 33 -276 0
-31 -33 -276 0
31 -33 276 0
37 39 277 0
-37 39 -277 0
37 -39 -277 0
-37 -39 277 0
-41 44 278 0
41 44 -278 0
-41 -44 -278 0
41 -44 278 0
-46 -48 279 0
46 -48 -279 0
-46 48 -279 0
46 48 279 0
265 -266 280 0
-265 -266 -280 0
265 266 -280 0
-265 266 280 0
267 -268 281 0
-267 -268 -281 0
267 268 -281 0
-267 268 281 0
269 -270 282 0
-269 -270 -282 0
269 270 -282 0
-269 270 282 0
271 -272 283 0
-271 -272 -283 0
271 272 -283 0
-271 272 283 0
273 -274 284 0
-273 -274 -284 0
273 274 -284 0
-273 274 284 0
275 -276 285 0
-275 -276 -285 0
275 276 -285 0
-275 276 285 0
277 -278 286 0
-277 -278 -286 0
277 278 -286 0
-277 278 286 0
279 -280 287 0
-279 -280 -287 0
279 280 -287 0
-279 280 287 0
281 -282 288 0
-281 -282 -288 0
281 282 -288 0
-281 282 288 0
283 -284 289 0
-283 -284 -289 0
283 284 -289 0
-283 284 289 0
285 -286 290 0
-285 -286 -290 0
285 286 -290 0
-285 286 290 0
287 -288 291 0
-287 -288 -291 0
287 288 -291 0
-287 288 291 0
289 -290 292 0
-289 -290 -292 0
289 290 -292 0
-289 290 292 0
291 292 0
-291 -292 0
-1 -3 293 0
1 -3 -293 0
-1 3 -293 0
1 3 293 0
-4 -5 294 0
4 -5 -294 0
-4 5 -294 0
4 5 294 0
6 9 295 0
-6 9 -295 0
6 -9 -295 0
-6 -9 295 0
-10 -11 296 0
10 -11 -296 0
-10 11 -296 0
10 11 296 0
13 -14 297 0
-13 -14 -297 0
13 14 -297 0
-13 14 297 0
15 16 298 0
-15 16 -298 0
15 -16 -298 0
-15 -16 298 0
-17 20 299 0
17 20 -299 0
-17 -20 -299 0
17 -20 299 0
-22 23 300 0
22 23 -300 0
-22 -23 -300 0
22 -23 300 0
24 -26 301 0
-24 -26 -301 0
24 26 -301 0
-24 26 301 0
-28 29 302 0
28 29 -302 0
-28 -29 -302 0
28 -29 302 0
30 33 303 0
-30 33 -303 0
30 -33 -303 0
-30 -33 303 0
36 -37 304 0
-36 -37 -304 0
36 37 -304 0
-36 37 304 0
-39 -40 305 0
39 -40 -305 0
-39 40 -305 0
39 40 305 0
43 -44 306 0
-43 -44 -306 0
43 44 -306 0
-43 44 306 0
45 -47 307 0
-45 -47 -307 0
45 47 -307 0
-45 47 307 0
293 -294 308 0
-293 -294 -308 0
293 294 -308 0
-293 294 308 0
295 -296 309 0
-295 -296 -309 0
295 296 -309 0
-295 296 309 0
297 -298 310 0
-297 -298 -310 0
297 298 -310 0
-297 298 310 0
299 -300 311 0
-299 -300 -311 0
299 300 -311 0
-299 300 311 0
301 -302 312 0
-301 -302 -312 0
301 302 -312 0
-301 302 312 0
303 -304 313 0
-303 -304 -313 0
303 304 -313 0
-303 304 313 0
305 -306 314 0
-305 -306 -314 0
305 306 -314 0
-305 306 314 0
307 -308 315 0
-307 -308 -315 0
307 308 -315 0
-307 308 315 0
309 -310 316 0
-309 -310 -316 0
309 310 -316 0
-309 310 316 0
311 -312 317 0
-311 -312 -317 0
311 312 -317 0
-311 312 317 0
313 -314 318 0
-313 -314 -318 0
313 314 -318 0
-313 314 318 0
315 -316 319 0
-315 -316 -319 0
315 316 -319 0
-315 316 319 0
317 -318 320 0
-317 -318 -320 0
317 318 -320 0
-317 318 320 0
319 320 0
-319 -320 0
2 6 321 0
-2 6 -321 0
2 -6 -321 0
-2 -6 321 0
-9 -11 322 0
9 -11 -322 0
-9 11 -322 0
9 11 322 0
13 -20 323 0
-13 -20 -323 0
13 20 -323 0
-13 20 323 0
-21 22 324 0
21 22 -324 0
-21 -22 -324 0
21 -22 324 0
-23 -29 325 0
23 -29 -325 0
-23 29 -325 0
23 29 325 0
30 32 326 0
-30 32 -326 0
30 -32 -326 0
-30 -32 326 0
35 -36 327 0
-35 -36 -327 0
35 36 -327 0
-35 36 327 0
-37 -39 328 0
37 -39 -328 0
-37 39 -328 0
37 39 328 0
41 43 329 0
-41 43 -329 0
41 -43 -329 0
-41 -43 329 0
44 45 330 0
-44 45 -330 0
44 -45 -330 0
-44 -45 330 0
47 49 331 0
-47 49 -331 0
47 -49 -331 0
-47 -49 331 0
321 -322 332 0
-321 -322 -332 0
321 322 -332 0
-321 322 332 0
323 -324 333 0
-323 -324 -333 0
323 324 -333 0
-323 324 333 0
325 -326 334 0
-325 -326 -334 0
325 326 -334 0
-325 326 334 0
327 -328 335 0
-327 -328 -335 0
327 328 -335 0
-327 328 335 0
329 -330 336 0
-329 -330 -336 0
329 330 -336 0
-329 330 336 0
331 -332 337 0
-331 -332 -337 0
331 332 -337 0
-331 332 337 0
333 -334 338 0
-333 -334 -338 0
333 334 -338 0
-333 334 338 0
335 -336 339 0
-335 -336 -339 0
335 336 -339 0
-335 336 339 0
-337 -338 339 0
337 -338 -339 0
-337 338 -339 0
337 338 339 0
-2 4 340 0
2 4 -340 0
-2 -4 -340 0
2 -4 340 0
5 -6 341 0
-5 -6 -341 0
5 6 -341 0
-5 6 341 0
7 9 342 0
-7 9 -342 0
7 -9 -342 0
-7 -9 342 0
12 13 343 0
-12 13 -343 0
12 -13 -343 0
-12 -13 343 0
15 -16 344 0
-15 -16 -344 0
15 16 -344 0
-15 16 344 0
-21 -24 345 0
21 -24 -345 0
-21 24 -345 0
21 24 345 0
25 -27 346 0
-25 -27 -346 0
25 27 -346 0
-25 27 346 0
29 31 347 0
-29 31 -347 0
29 -31 -347 0
-29 -31 347 0
-32 -33 348 0
32 -33 -348 0
-32 33 -348 0
32 33 348 0
35 -40 349 0
-35 -40 -349 0
35 40 -349 0
-35 40 349 0
-42 45 350 0
42 45 -350 0
-42 -45 -350 0
42 -45 350 0
47 50 351 0
-47 50 -351 0
47 -50 -351 0
-47 -50 351 0
340 -341 352 0
-340 -341 -352 0
340 341 -352 0
-340 341 352 0
342 -343 353 0
-342 -343 -353 0
342 343 -353 0
-342 343 353 0
344 -345 354 0
-344 -345 -354 0
344 345 -354 0
-344 345 354 0
346 -347 355 0
-346 -347 -355 0
346 347 -355 0
-346 347 355 0
348 -349 356 0
-348 -349 -356 0
348 349 -356 0
-348 349 356 0
350 -351 357 0
-350 -351 -357 0
350 351 -357 0
-350 351 357 0
352 -353 358 0
-352 -353 -358 0
352 353 -358 0
-352 353 358 0
354 -355 359 0
-354 -355 -359 0
354 355 -359 0
-354 355 359 0
356 -357 360 0
-356 -357 -360 0
356 357 -360 0
-356 357 360 0
-358 -359 360 0
358 -359 -360 0
-358 359 -360 0
358 359 360 0
2 -4 361 0
-2 -4 -361 0
2 4 -361 0
-2 4 361 0
-9 -13 362 0
9 -13 -362 0
-9 13 -362 0
9 13 362 0
14 -17 363 0
-14 -17 -363 0
14 17 -363 0
-14 17 363 0
18 -19 364 0
-18 -19 -364 0
18 19 -364 0
-18 19 364 0
-21 -23 365 0
21 -23 -365 0
-21 23 -365 0
21 23 365 0
25 -26 366 0
-25 -26 -366 0
25 26 -366 0
-25 26 366 0
27 -28 367 0
-27 -28 -367 0
27 28 -367 0
-27 28 367 0
30 -32 368 0
-30 -32 -368 0
30 32 -368 0
-30 32 368 0
-33 -34 369 0
33 -34 -369 0
-33 34 -369 0
33 34 369 0
-37 -46 370 0
37 -46 -370 0
-37 46 -370 0
37 46 370 0
47 -48 371 0
-47 -48 -371 0
47 48 -371 0
-47 48 371 0
361 -362 372 0
-361 -362 -372 0
361 362 -372 0
-361 362 372 0
363 -364 373 0
-363 -364 -373 0
363 364 -373 0
-363 364 373 0
365 -366 374 0
-365 -366 -374 0
365 366 -374 0
-365 366 374 0
367 -368 375 0
-367 -368 -375 0
367 368 -375 0
-367 368 375 0
369 -370 376 0
-369 -370 -376 0
369 370 -376 0
-369 370 376 0
371 -372 377 0
-371 -372 -377 0
371 372 -377 0
-371 372 377 0
373 -374 378 0
-373 -374 -378 0
373 374 -378 0
-373 374 378 0
375 -376 379 0
-375 -376 -379 0
375 376 -379 0
-375 376 379 0
-377 -378 379 0
377 -378 -379 0
-377 378 -379 0
377 378 379 0
-1 2 380 0
1 2 -380 0
-1 -2 -380 0
1 -2 380 0
3 -4 381 0
-3 -4 -381 0
3 4 -381 0
-3 4 381 0
8 -10 382 0
-8 -10 -382 0
8 10 -382 0
-8 10 382 0
11 15 383 0
-11 15 -383 0
11 -15 -383 0
-11 -15 383 0
-16 17 384 0
16 17 -384 0
-16 -17 -384 0
16 -17 384 0
-18 19 385 0
18 19 -385 0
-18 -19 -385 0
18 -19 385 0
20 21 386 0
-20 21 -386 0
20 -21 -386 0
-20 -21 386 0
-26 -30 387 0
26 -30 -387 0
-26 30 -387 0
26 30 387 0
31 -33 388 0
-31 -33 -388 0
31 33 -388 0
-31 33 388 0
-34 -36 389 0
34 -36 -389 0
-34 36 -389 0
34 36 389 0
40 43 390 0
-40 43 -390 0
40 -43 -390 0
-40 -43 390 0
44 -47 391 0
-44 -47 -391 0
44 47 -391 0
-44 47 391 0
-49 50 392 0
49 50 -392 0
-49 -50 -392 0
49 -50 392 0
380 -381 393 0
-380 -381 -393 0
380 381 -393 0
-380 381 393 0
382 -383 394 0
-382 -383 -394 0
382 383 -394 0
-382 383 394 0
384 -385 395 0
-384 -385 -395 0
384 385 -395 0
-384 385 395 0
386 -387 396 0
-386 -387 -396 0
386 387 -396 0
-386 387 396 0
388 -389 397 0
-388 -389 -397 0
388 389 -397 0
-388 389 397 0
390 -391 398 0
-390 -391 -398 0
390 391 -398 0
-390 391 398 0
392 -393 399 0
-392 -393 -399 0
392 393 -399 0
-392 393 399 0
394 -395 400 0
-394 -395 -400 0
394 395 -400 0
-394 395 400 0
396 -397 401 0
-396 -397 -401 0
396 397 -401 0
-396 397 401 0
398 -399 402 0
-398 -399 -402 0
398 399 -402 0
-398 399 402 0
400 -401 403 0
-400 -401 -403 0
400 401 -403 0
-400 401 403 0
402 403 0
-402 -403 0
2 5 404 0
-2 5 -404 0
2 -5 -404 0
-2 -5 404 0
9 10 405 0
-9 10 -405 0
9 -10 -405 0
-9 -10 405 0
-11 -13 406 0
11 -13 -406 0
-11 13 -406 0
11 13 406 0
-14 -15 407 0
14 -15 -407 0
-14 15 -407 0
14 15 407 0
16 17 408 0
-16 17 -408 0
16 -17 -408 0
-16 -17 408 0
-19 -20 409 0
19 -20 -409 0
-19 20 -409 0
19 20 409 0
-21 22 410 0
21 22 -410 0
-21 -22 -410 0
21 -22 410 0
-23 -26 411 0
23 -26 -411 0
-23 26 -411 0
23 26 411 0
-29 -30 412 0
29 -30 -412 0
-29 30 -412 0
29 30 412 0
31 34 413 0
-31 34 -413 0
31 -34 -413 0
-31 -34 413 0
-36 38 414 0
36 38 -414 0
-36 -38 -414 0
36 -38 414 0
-40 41 415 0
40 41 -415 0
-40 -41 -415 0
40 -41 415 0
-45 -46 416 0
45 -46 -416 0
-45 46 -416 0
45 46 416 0
403 -404 417 0
-403 -404 -417 0
403 404 -417 0
-403 404 417 0
405 -406 418 0
-405 -406 -418 0
405 406 -418 0
-405 406 418 0
407 -408 419 0
-407 -408 -419 0
407 408 -419 0
-407 408 419 0
409 -410 420 0
-409 -410 -420 0
409 410 -420 0
-409 410 420 0
411 -412 421 0
-411 -412 -421 0
411 412 -421 0
-411 412 421 0
413 -414 422 0
-413 -414 -422 0
413 414 -422 0
-413 414 422 0
415 -416 423 0
-415 -416 -423 0
415 416 -423 0
-415 416 423 0
417 -418 424 0
-417 -418 -424 0
417 418 -424 0
-417 418 424 0
419 -420 425 0
-419 -420 -425 0
419 420 -425 0
-419 420 425 0
421 -422 426 0
-421 -422 -426 0
421 422 -426 0
-421 422 426 0
423 -424 427 0
-423 -424 -427 0
423 424 -427 0
-423 424 427 0
425 -426 428 0
-425 -426 -428 0
425 426 -428 0
-425 426 428 0
427 428 0
-427 -428 0
3 -6 429 0
-3 -6 -429 0
3 6 -429 0
-3 6 429 0
-11 14 430 0
11 14 -430 0
-11 -14 -430 0
11 -14 430 0
17 -18 431 0
-17 -18 -431 0
17 18 -431 0
-17 18 431 0
20 22 432 0
-20 22 -432 0
20 -22 -432 0
-20 -22 432 0
-24 -26 433 0
24 -26 -433 0
-24 26 -433 0
24 26 433 0
27 31 434 0
-27 31 -434 0
27 -31 -434 0
-27 -31 434 0
33 -35 435 0
-33 -35 -435 0
33 35 -435 0
-33 35 435 0
-36 -37 436 0
36 -37 -436 0
-36 37 -436 0
36 37 436 0
38 -40 437 0
-38 -40 -437 0
38 40 -437 0
-38 40 437 0
-41 47 438 0
41 47 -438 0
-41 -47 -438 0
41 -47 438 0
428 -429 439 0
-428 -429 -439 0
428 429 -439 0
-428 429 439 0
430 -431 440 0
-430 -431 -440 0
430 431 -440 0
-430 431 440 0
432 -433 441 0
-432 -433 -441 0
432 433 -441 0
-432 433 441 0
434 -435 442 0
-434 -435 -442 0
434 435 -442 0
-434 435 442 0
436 -437 443 0
-436 -437 -443 0
436 437 -443 0
-436 437 443 0
438 -439 444 0
-438 -439 -444 0
438 439 -444 0
-438 439 444 0
440 -441 445 0
-440 -441 -445 0
440 441 -445 0
-440 441 445 0
442 -443 446 0
-442 -443 -446 0
442 443 -446 0
-442 443 446 0
-444 -445 446 0
444 -445 -446 0
-444 445 -446 0
444 445 446 0
1 -4 447 0
-1 -4 -447 0
1 4 -447 0
-1 4 447 0
-5 7 448 0
5 7 -448 0
-5 -7 -448 0
5 -7 448 0
8 10 449 0
-8 10 -449 0
8 -10 -449 0
-8 -10 449 0
-12 -15 450 0
12 -15 -450 0
-12 15 -450 0
12 15 450 0
-20 24 451 0
20 24 -451 0
-20 -24 -451 0
20 -24 451 0
-25 -26 452 0
25 -26 -452 0
-25 26 -452 0
25 26 452 0
-30 -33 453 0
30 -33 -453 0
-30 33 -453 0
30 33 453 0
34 35 454 0
-34 35 -454 0
34 -35 -454 0
-34 -35 454 0
-37 38 455 0
37 38 -455 0
-37 -38 -455 0
37 -38 455 0
-41 43 456 0
41 43 -456 0
-41 -43 -456 0
41 -43 456 0
47 -49 457 0
-47 -49 -457 0
47 49 -457 0
-47 49 457 0
447 -448 458 0
-447 -448 -458 0
447 448 -458 0
-447 448 458 0
449 -450 459 0
-449 -450 -459 0
449 450 -459 0
-449 450 459 0
451 -452 460 0
-451 -452 -460 0
451 452 -460 0
-451 452 460 0
453 -454 461 0
-453 -454 -461 0
453 454 -461 0
-453 454 461 0
455 -456 462 0
-455 -456 -462 0
455 456 -462 0
-455 456 462 0
457 -458 463 0
-457 -458 -463 0
457 458 -463 0
-457 458 463 0
459 -460 464 0
-459 -460 -464 0
459 460 -464 0
-459 460 464 0
461 -462 465 0
-461 -462 -465 0
461 462 -465 0
-461 462 465 0
-463 -464 465 0
463 -464 -465 0
-463 464 -465 0
463 464 465 0
6 8 466 0
-6 8 -466 0
6 -8 -466 0
-6 -8 466 0
-9 -12 467 0
9 -12 -467 0
-9 12 -467 0
9 12 467 0
-13 -16 468 0
13 -16 -468 0
-13 16 -468 0
13 16 468 0
17 19 469 0
-17 19 -469 0
17 -19 -469 0
-17 -19 469 0
20 25 470 0
-20 25 -470 0
20 -25 -470 0
-20 -25 470 0
26 -27 471 0
-26 -27 -471 0
26 27 -471 0
-26 27 471 0
-28 30 472 0
28 30 -472 0
-28 -30 -472 0
28 -30 472 0
-32 -34 473 0
32 -34 -473 0
-32 34 -473 0
32 34 473 0
-37 38 474 0
37 38 -474 0
-37 -38 -474 0
37 -38 474 0
-39 40 475 0
39 40 -475 0
-39 -40 -475 0
39 -40 475 0
-41 43 476 0
41 43 -476 0
-41 -43 -476 0
41 -43 476 0
45 46 477 0
-45 46 -477 0
45 -46 -477 0
-45 -46 477 0
-47 49 478 0
47 49 -478 0
-47 -49 -478 0
47 -49 478 0
466 -467 479 0
-466 -467 -479 0
466 467 -479 0
-466 467 479 0
468 -469 480 0
-468 -469 -480 0
468 469 -480 0
-468 469 480 0
470 -471 481 0
-470 -471 -481 0
470 471 -481 0
-470 471 481 0
472 -473 482 0
-472 -473 -482 0
472 473 -482 0
-472 473 482 0
474 -475 483 0
-474 -475 -483 0
474 475 -483 0
-474 475 483 0
476 -477 484 0
-476 -477 -484 0
476 477 -484 0
-476 477 484 0
478 -479 485 0
-478 -479 -485 0
478 479 -485 0
-478 479 485 0
480 -481 486 0
-480 -481 -486 0
480 481 -486 0
-480 481 486 0
482 -483 487 0
-482 -483 -487 0
482 483 -487 0
-482 483 487 0
484 -485 488 0
-484 -485 -488 0
484 485 -488 0
-484 485 488 0
486 -487 489 0
-486 -487 -489 0
486 487 -489 0
-486 487 489 0
488 489 0
-488 -489 0
